1189
0
3,2,6,1071
0
3,2,7,847
0
3,2,8,754
0
3,2,9,2470
0
3,2,4,239
0
3,2,5,4
0
3,0,0,0
179535000
3,2,6,1075
0
3,2,7,850
0
3,2,8,757
0
3,2,9,2475
0
3,2,4,239
0
3,2,5,4
0
3,0,0,0
179791000
3,2,6,1080
0
3,2,7,854
0
3,2,8,760
0
3,2,9,2488
0
3,2,4,239
0
3,2,5,4
0
3,0,0,0
179351000
3,2,6,1092
0
3,2,7,863
0
3,2,8,766
0
3,2,9,2512
0
3,2,4,239
0
3,2,5,4
0
3,0,0,0
179087000
3,2,6,1103
0
3,2,7,871
0
3,2,8,773
0
3,2,9,2537
0
3,2,4,239
0
3,2,5,4
0
3,0,0,0
180155000
3,2,6,1106
0
3,2,7,874
0
3,2,8,775
0
3,2,9,2544
0
3,2,4,239
0
3,2,5,4
0
3,0,0,0
179363000
3,2,6,1110
0
3,2,7,877
0
3,2,8,777
0
3,2,9,2552
0
3,2,4,239
0
3,2,5,4
0
3,0,0,0
179713000
3,2,6,1113
0
3,2,7,879
0
3,2,8,779
0
3,2,9,2558
0
3,2,4,239
0
3,2,5,4
0
3,0,0,0
123670000
2,3,57,170
0
2,1,330,1
0
2,3,53,189
0
2,3,54,737
0
2,3,48,6
0
2,3,49,6
0
2,0,0,0
10515000
2,3,49,5
0
2,0,0,0
10935000
2,3,49,6
0
2,0,0,0
11177000
2,3,48,7
0
2,0,0,0
10500000
2,3,57,4294967295
0
2,1,330,0
0
2,0,0,0
11992000
3,2,6,1115
0
3,2,7,880
0
3,2,8,780
0
3,2,9,2562
0
3,2,4,239
0
3,2,5,4
0
3,0,0,0
179452000
3,2,6,1116
0
3,2,7,880
0
3,2,8,781
0
3,2,9,2563
0
3,2,4,239
0
3,2,5,4
0
3,0,0,0
179302000
3,2,6,1114
0
3,2,7,879
0
3,2,8,778
0
3,2,9,2557
0
3,2,4,239
0
3,2,5,4
0
3,0,0,0
179709000
3,2,6,1117
0
3,2,7,882
0
3,2,8,781
0
3,2,9,2565
0
3,2,4,239
0
3,2,5,4
0
3,0,0,0
179441000
3,2,6,1131
0
3,2,7,892
0
3,2,8,789
0
3,2,9,2595
0
3,2,4,239
0
3,2,5,4
0
3,0,0,0
180054000
3,2,6,1126
0
3,2,7,889
0
3,2,8,786
0
3,2,9,2579
0
3,2,4,239
0
3,2,5,4
0
3,0,0,0
179561000
3,2,6,1090
0
3,2,7,861
0
3,2,8,765
0
3,2,9,2504
0
3,2,4,239
0
3,2,5,4
0
3,0,0,0
179563000
3,2,6,1102
0
3,2,7,870
0
3,2,8,772
0
3,2,9,2523
0
3,2,4,239
0
3,2,5,4
0
3,0,0,0
179556000
3,2,6,1163
0
3,2,7,914
0
3,2,8,805
0
3,2,9,2657
0
3,2,4,239
0
3,2,5,4
0
3,0,0,0
179252000
3,2,6,1184
0
3,2,7,930
0
3,2,8,819
0
3,2,9,2716
0
3,2,4,239
0
3,2,5,4
0
3,0,0,0
179909000
3,2,6,1185
0
3,2,7,930
0
3,2,8,819
0
3,2,9,2718
0
3,2,4,239
0
3,2,5,4
0
3,0,0,0
179635000
3,2,6,1185
0
3,2,7,930
0
3,2,8,819
0
3,2,9,2717
0
3,2,4,239
0
3,2,5,4
0
3,0,0,0
180313000
3,2,6,1185
0
3,2,7,931
0
3,2,8,819
0
3,2,9,2718
0
3,2,4,239
0
3,2,5,4
0
3,0,0,0
180080000
3,2,6,1185
0
3,2,7,930
0
3,2,8,819
0
3,2,9,2717
0
3,2,4,239
0
3,2,5,4
0
3,0,0,0
179090000
3,2,6,1185
0
3,2,7,930
0
3,2,8,819
0
3,2,9,2717
0
3,2,4,239
0
3,2,5,4
0
3,0,0,0
179352000
3,2,6,1184
0
3,2,7,930
0
3,2,8,819
0
3,2,9,2717
0
3,2,4,239
0
3,2,5,4
0
3,0,0,0
179591000
3,2,6,1185
0
3,2,7,930
0
3,2,8,820
0
3,2,9,2719
0
3,2,4,239
0
3,2,5,4
0
3,0,0,0
179636000
3,2,6,1185
0
3,2,7,930
0
3,2,8,820
0
3,2,9,2718
0
3,2,4,239
0
3,2,5,4
0
3,0,0,0
179811000
3,2,6,1184
0
3,2,7,930
0
3,2,8,819
0
3,2,9,2718
0
3,2,4,239
0
3,2,5,4
0
3,0,0,0
179357000
3,2,6,1185
0
3,2,7,930
0
3,2,8,819
0
3,2,9,2717
0
3,2,4,239
0
3,2,5,4
0
3,0,0,0
178581000
3,2,6,1185
0
3,2,7,930
0
3,2,8,819
0
3,2,9,2717
0
3,2,4,239
0
3,2,5,4
0
3,0,0,0
180606000
3,2,6,1184
0
3,2,7,930
0
3,2,8,819
0
3,2,9,2717
0
3,2,4,239
0
3,2,5,4
0
3,0,0,0
178855000
3,2,6,1185
0
3,2,7,930
0
3,2,8,819
0
3,2,9,2716
0
3,2,4,239
0
3,2,5,4
0
3,0,0,0
180141000
3,2,6,1184
0
3,2,7,930
0
3,2,8,819
0
3,2,9,2717
0
3,2,4,239
0
3,2,5,4
0
3,0,0,0
179799000
3,2,6,1185
0
3,2,7,931
0
3,2,8,819
0
3,2,9,2717
0
3,2,4,239
0
3,2,5,4
0
3,0,0,0
179658000
3,2,6,1184
0
3,2,7,930
0
3,2,8,819
0
3,2,9,2717
0
3,2,4,239
0
3,2,5,4
0
3,0,0,0
178781000
3,2,6,1185
0
3,2,7,930
0
3,2,8,819
0
3,2,9,2717
0
3,2,4,239
0
3,2,5,4
0
3,0,0,0
179096000
3,2,6,1185
0
3,2,7,930
0
3,2,8,819
0
3,2,9,2719
0
3,2,4,239
0
3,2,5,4
0
3,0,0,0
180077000
3,2,6,1185
0
3,2,7,930
0
3,2,8,819
0
3,2,9,2719
0
3,2,4,239
0
3,2,5,4
0
3,0,0,0
179338000
3,2,6,1185
0
3,2,7,930
0
3,2,8,819
0
3,2,9,2718
0
3,2,4,239
0
3,2,5,4
0
3,0,0,0
180273000
3,2,6,1185
0
3,2,7,930
0
3,2,8,819
0
3,2,9,2717
0
3,2,4,239
0
3,2,5,4
0
3,0,0,0
178691000
3,2,6,1185
0
3,2,7,931
0
3,2,8,819
0
3,2,9,2718
0
3,2,4,239
0
3,2,5,4
0
3,0,0,0
179441000
3,2,6,1184
0
3,2,7,930
0
3,2,8,820
0
3,2,9,2717
0
3,2,4,239
0
3,2,5,4
0
3,0,0,0
180628000
3,2,6,1185
0
3,2,7,931
0
3,2,8,819
0
3,2,9,2717
0
3,2,4,239
0
3,2,5,4
0
3,0,0,0
179813000
3,2,6,1184
0
3,2,7,930
0
3,2,8,819
0
3,2,9,2718
0
3,2,4,239
0
3,2,5,4
0
3,0,0,0
180001000
3,2,6,1185
0
3,2,7,930
0
3,2,8,819
0
3,2,9,2719
0
3,2,4,239
0
3,2,5,4
0
3,0,0,0
179028000
3,2,6,1184
0
3,2,7,930
0
3,2,8,819
0
3,2,9,2718
0
3,2,4,239
0
3,2,5,4
0
3,0,0,0
178379000
3,2,6,1184
0
3,2,7,930
0
3,2,8,819
0
3,2,9,2717
0
3,2,4,239
0
3,2,5,4
0
3,0,0,0
179867000
3,2,6,1185
0
3,2,7,930
0
3,2,8,819
0
3,2,9,2718
0
3,2,4,239
0
3,2,5,4
0
3,0,0,0
179541000
3,2,6,1184
0
3,2,7,930
0
3,2,8,819
0
3,2,9,2717
0
3,2,4,239
0
3,2,5,4
0
3,0,0,0
179529000
3,2,6,1184
0
3,2,7,930
0
3,2,8,819
0
3,2,9,2718
0
3,2,4,239
0
3,2,5,4
0
3,0,0,0
179318000
3,2,6,1184
0
3,2,7,930
0
3,2,8,819
0
3,2,9,2717
0
3,2,4,239
0
3,2,5,4
0
3,0,0,0
179662000
3,2,6,1184
0
3,2,7,930
0
3,2,8,819
0
3,2,9,2718
0
3,2,4,239
0
3,2,5,4
0
3,0,0,0
179779000
3,2,6,1185
0
3,2,7,930
0
3,2,8,819
0
3,2,9,2718
0
3,2,4,239
0
3,2,5,4
0
3,0,0,0
179539000
3,2,6,1184
0
3,2,7,930
0
3,2,8,819
0
3,2,9,2719
0
3,2,4,239
0
3,2,5,4
0
3,0,0,0
179573000
3,2,6,1184
0
3,2,7,930
0
3,2,8,819
0
3,2,9,2718
0
3,2,4,239
0
3,2,5,4
0
3,0,0,0
179639000
3,2,6,1184
0
3,2,7,930
0
3,2,8,819
0
3,2,9,2717
0
3,2,4,239
0
3,2,5,4
0
3,0,0,0
179619000
3,2,6,1184
0
3,2,7,930
0
3,2,8,819
0
3,2,9,2717
0
3,2,4,239
0
3,2,5,4
0
3,0,0,0
179518000
3,2,6,1184
0
3,2,7,930
0
3,2,8,819
0
3,2,9,2718
0
3,2,4,239
0
3,2,5,4
0
3,0,0,0
179522000
3,2,6,1184
0
3,2,7,930
0
3,2,8,819
0
3,2,9,2716
0
3,2,4,239
0
3,2,5,4
0
3,0,0,0
179584000
3,2,6,1184
0
3,2,7,930
0
3,2,8,819
0
3,2,9,2719
0
3,2,4,239
0
3,2,5,4
0
3,0,0,0
179595000
3,2,6,1184
0
3,2,7,930
0
3,2,8,819
0
3,2,9,2717
0
3,2,4,239
0
3,2,5,4
0
3,0,0,0
179228000
3,2,6,1184
0
3,2,7,930
0
3,2,8,819
0
3,2,9,2718
0
3,2,4,239
0
3,2,5,4
0
3,0,0,0
179862000
3,2,6,1185
0
3,2,7,930
0
3,2,8,819
0
3,2,9,2717
0
3,2,4,239
0
3,2,5,4
0
3,0,0,0
179608000
3,2,6,1184
0
3,2,7,930
0
3,2,8,819
0
3,2,9,2717
0
3,2,4,239
0
3,2,5,4
0
3,0,0,0
179551000
3,2,6,1184
0
3,2,7,930
0
3,2,8,819
0
3,2,9,2717
0
3,2,4,239
0
3,2,5,4
0
3,0,0,0
179391000
3,2,6,1184
0
3,2,7,930
0
3,2,8,819
0
3,2,9,2718
0
3,2,4,239
0
3,2,5,4
0
3,0,0,0
179778000
3,2,6,1184
0
3,2,7,930
0
3,2,8,819
0
3,2,9,2717
0
3,2,4,239
0
3,2,5,4
0
3,0,0,0
179550000
3,2,6,1184
0
3,2,7,930
0
3,2,8,819
0
3,2,9,2717
0
3,2,4,239
0
3,2,5,4
0
3,0,0,0
179739000
3,2,6,1185
0
3,2,7,930
0
3,2,8,819
0
3,2,9,2716
0
3,2,4,239
0
3,2,5,4
0
3,0,0,0
179395000
3,2,6,1184
0
3,2,7,930
0
3,2,8,819
0
3,2,9,2717
0
3,2,4,239
0
3,2,5,4
0
3,0,0,0
179696000
3,2,6,1184
0
3,2,7,930
0
3,2,8,819
0
3,2,9,2717
0
3,2,4,239
0
3,2,5,4
0
3,0,0,0
179473000
3,2,6,1184
0
3,2,7,930
0
3,2,8,819
0
3,2,9,2717
0
3,2,4,239
0
3,2,5,4
0
3,0,0,0
179548000
3,2,6,1185
0
3,2,7,930
0
3,2,8,819
0
3,2,9,2717
0
3,2,4,239
0
3,2,5,4
0
3,0,0,0
179580000
3,2,6,1184
0
3,2,7,930
0
3,2,8,819
0
3,2,9,2717
0
3,2,4,239
0
3,2,5,4
0
3,0,0,0
179538000
3,2,6,1185
0
3,2,7,930
0
3,2,8,819
0
3,2,9,2718
0
3,2,4,239
0
3,2,5,4
0
3,0,0,0
179597000
3,2,6,1184
0
3,2,7,930
0
3,2,8,819
0
3,2,9,2718
0
3,2,4,239
0
3,2,5,4
0
3,0,0,0
179587000
3,2,6,1184
0
3,2,7,930
0
3,2,8,819
0
3,2,9,2718
0
3,2,4,239
0
3,2,5,4
0
3,0,0,0
179621000
3,2,6,1184
0
3,2,7,930
0
3,2,8,819
0
3,2,9,2717
0
3,2,4,239
0
3,2,5,4
0
3,0,0,0
179502000
3,2,6,1184
0
3,2,7,930
0
3,2,8,819
0
3,2,9,2716
0
3,2,4,239
0
3,2,5,4
0
3,0,0,0
179411000
3,2,6,1183
0
3,2,7,930
0
3,2,8,819
0
3,2,9,2716
0
3,2,4,239
0
3,2,5,4
0
3,0,0,0
179803000
3,2,6,1184
0
3,2,7,930
0
3,2,8,819
0
3,2,9,2717
0
3,2,4,239
0
3,2,5,4
0
3,0,0,0
179179000
3,2,6,1184
0
3,2,7,930
0
3,2,8,818
0
3,2,9,2717
0
3,2,4,239
0
3,2,5,4
0
3,0,0,0
179914000
3,2,6,1184
0
3,2,7,930
0
3,2,8,819
0
3,2,9,2717
0
3,2,4,239
0
3,2,5,4
0
3,0,0,0
179761000
3,2,6,1184
0
3,2,7,930
0
3,2,8,818
0
3,2,9,2717
0
3,2,4,239
0
3,2,5,4
0
3,0,0,0
179284000
3,2,6,1184
0
3,2,7,930
0
3,2,8,818
0
3,2,9,2718
0
3,2,4,239
0
3,2,5,4
0
3,0,0,0
180840000
3,2,6,1183
0
3,2,7,930
0
3,2,8,818
0
3,2,9,2717
0
3,2,4,239
0
3,2,5,4
0
3,0,0,0
178224000
3,2,6,1184
0
3,2,7,930
0
3,2,8,818
0
3,2,9,2717
0
3,2,4,239
0
3,2,5,4
0
3,0,0,0
179429000
3,2,6,1184
0
3,2,7,930
0
3,2,8,819
0
3,2,9,2717
0
3,2,4,239
0
3,2,5,4
0
3,0,0,0
180144000
3,2,6,1184
0
3,2,7,930
0
3,2,8,819
0
3,2,9,2717
0
3,2,4,239
0
3,2,5,4
0
3,0,0,0
179136000
3,2,6,1184
0
3,2,7,930
0
3,2,8,819
0
3,2,9,2718
0
3,2,4,239
0
3,2,5,4
0
3,0,0,0
180265000
3,2,6,1184
0
3,2,7,930
0
3,2,8,819
0
3,2,9,2718
0
3,2,4,239
0
3,2,5,4
0
3,0,0,0
181673000
3,2,6,1184
0
3,2,7,930
0
3,2,8,819
0
3,2,9,2719
0
3,2,4,239
0
3,2,5,4
0
3,0,0,0
177767000
3,2,6,1184
0
3,2,7,930
0
3,2,8,819
0
3,2,9,2718
0
3,2,4,239
0
3,2,5,4
0
3,0,0,0
178419000
3,2,6,1184
0
3,2,7,930
0
3,2,8,819
0
3,2,9,2717
0
3,2,4,239
0
3,2,5,4
0
3,0,0,0
179857000
3,2,6,1184
0
3,2,7,930
0
3,2,8,818
0
3,2,9,2718
0
3,2,4,239
0
3,2,5,4
0
3,0,0,0
179607000
3,2,6,1184
0
3,2,7,930
0
3,2,8,818
0
3,2,9,2717
0
3,2,4,239
0
3,2,5,4
0
3,0,0,0
179363000
3,2,6,1184
0
3,2,7,930
0
3,2,8,818
0
3,2,9,2717
0
3,2,4,239
0
3,2,5,4
0
3,0,0,0
179725000
3,2,6,1184
0
3,2,7,930
0
3,2,8,819
0
3,2,9,2718
0
3,2,4,239
0
3,2,5,4
0
3,0,0,0
179588000
3,2,6,1183
0
3,2,7,930
0
3,2,8,819
0
3,2,9,2718
0
3,2,4,239
0
3,2,5,4
0
3,0,0,0
179551000
3,2,6,1184
0
3,2,7,930
0
3,2,8,819
0
3,2,9,2717
0
3,2,4,239
0
3,2,5,4
0
3,0,0,0
179606000
3,2,6,1184
0
3,2,7,930
0
3,2,8,819
0
3,2,9,2718
0
3,2,4,239
0
3,2,5,4
0
3,0,0,0
179597000
3,2,6,1184
0
3,2,7,930
0
3,2,8,818
0
3,2,9,2719
0
3,2,4,239
0
3,2,5,4
0
3,0,0,0
179316000
3,2,6,1184
0
3,2,7,930
0
3,2,8,819
0
3,2,9,2719
0
3,2,4,239
0
3,2,5,4
0
3,0,0,0
179771000
3,2,6,1185
0
3,2,7,930
0
3,2,8,819
0
3,2,9,2718
0
3,2,4,239
0
3,2,5,4
0
3,0,0,0
179647000
3,2,6,1185
0
3,2,7,930
0
3,2,8,819
0
3,2,9,2718
0
3,2,4,239
0
3,2,5,4
0
3,0,0,0
179434000
3,2,6,1184
0
3,2,7,930
0
3,2,8,819
0
3,2,9,2718
0
3,2,4,239
0
3,2,5,4
0
3,0,0,0
179474000
3,2,6,1184
0
3,2,7,930
0
3,2,8,819
0
3,2,9,2719
0
3,2,4,239
0
3,2,5,4
0
3,0,0,0
179808000
3,2,6,1184
0
3,2,7,930
0
3,2,8,819
0
3,2,9,2719
0
3,2,4,239
0
3,2,5,4
0
3,0,0,0
179236000
3,2,6,1184
0
3,2,7,930
0
3,2,8,819
0
3,2,9,2718
0
3,2,4,239
0
3,2,5,4
0
3,0,0,0
179472000
3,2,6,1185
0
3,2,7,930
0
3,2,8,819
0
3,2,9,2718
0
3,2,4,239
0
3,2,5,4
0
3,0,0,0
179626000
3,2,6,1185
0
3,2,7,931
0
3,2,8,819
0
3,2,9,2718
0
3,2,4,239
0
3,2,5,4
0
3,0,0,0
179583000
3,2,6,1184
0
3,2,7,930
0
3,2,8,819
0
3,2,9,2718
0
3,2,4,239
0
3,2,5,4
0
3,0,0,0
179997000
3,2,6,1184
0
3,2,7,930
0
3,2,8,819
0
3,2,9,2718
0
3,2,4,239
0
3,2,5,4
0
3,0,0,0
179012000
3,2,6,1185
0
3,2,7,930
0
3,2,8,819
0
3,2,9,2718
0
3,2,4,239
0
3,2,5,4
0
3,0,0,0
180209000
3,2,6,1184
0
3,2,7,930
0
3,2,8,818
0
3,2,9,2718
0
3,2,4,239
0
3,2,5,4
0
3,0,0,0
179053000
3,2,6,1184
0
3,2,7,930
0
3,2,8,819
0
3,2,9,2717
0
3,2,4,239
0
3,2,5,4
0
3,0,0,0
180173000
3,2,6,1185
0
3,2,7,930
0
3,2,8,819
0
3,2,9,2718
0
3,2,4,239
0
3,2,5,4
0
3,0,0,0
179182000
3,2,6,1184
0
3,2,7,930
0
3,2,8,819
0
3,2,9,2718
0
3,2,4,239
0
3,2,5,4
0
3,0,0,0
179559000
3,2,6,1184
0
3,2,7,930
0
3,2,8,818
0
3,2,9,2718
0
3,2,4,239
0
3,2,5,4
0
3,0,0,0
179491000
3,2,6,1184
0
3,2,7,930
0
3,2,8,819
0
3,2,9,2717
0
3,2,4,239
0
3,2,5,4
0
3,0,0,0
179560000
3,2,6,1184
0
3,2,7,930
0
3,2,8,819
0
3,2,9,2717
0
3,2,4,239
0
3,2,5,4
0
3,0,0,0
180494000
3,2,6,1185
0
3,2,7,930
0
3,2,8,818
0
3,2,9,2718
0
3,2,4,239
0
3,2,5,4
0
3,0,0,0
179677000
3,2,6,1185
0
3,2,7,930
0
3,2,8,818
0
3,2,9,2719
0
3,2,4,239
0
3,2,5,4
0
3,0,0,0
179526000
3,2,6,1184
0
3,2,7,930
0
3,2,8,818
0
3,2,9,2717
0
3,2,4,239
0
3,2,5,4
0
3,0,0,0
178578000
3,2,6,1184
0
3,2,7,930
0
3,2,8,820
0
3,2,9,2718
0
3,2,4,239
0
3,2,5,4
0
3,0,0,0
181004000
3,2,6,1184
0
3,2,7,930
0
3,2,8,819
0
3,2,9,2717
0
3,2,4,239
0
3,2,5,4
0
3,0,0,0
178209000
3,2,6,1185
0
3,2,7,930
0
3,2,8,819
0
3,2,9,2718
0
3,2,4,239
0
3,2,5,4
0
3,0,0,0
180521000
3,2,6,1184
0
3,2,7,930
0
3,2,8,819
0
3,2,9,2717
0
3,2,4,239
0
3,2,5,4
0
3,0,0,0
179612000
3,2,6,1184
0
3,2,7,930
0
3,2,8,819
0
3,2,9,2718
0
3,2,4,239
0
3,2,5,4
0
3,0,0,0
179488000
3,2,6,1184
0
3,2,7,930
0
3,2,8,819
0
3,2,9,2717
0
3,2,4,239
0
3,2,5,4
0
3,0,0,0
179659000
3,2,6,1184
0
3,2,7,930
0
3,2,8,819
0
3,2,9,2717
0
3,2,4,239
0
3,2,5,4
0
3,0,0,0
179415000
3,2,6,1184
0
3,2,7,930
0
3,2,8,819
0
3,2,9,2718
0
3,2,4,239
0
3,2,5,4
0
3,0,0,0
179550000
3,2,6,1184
0
3,2,7,930
0
3,2,8,819
0
3,2,9,2717
0
3,2,4,239
0
3,2,5,4
0
3,0,0,0
179673000
3,2,6,1184
0
3,2,7,930
0
3,2,8,819
0
3,2,9,2717
0
3,2,4,239
0
3,2,5,4
0
3,0,0,0
179617000
3,2,6,1184
0
3,2,7,930
0
3,2,8,819
0
3,2,9,2718
0
3,2,4,239
0
3,2,5,4
0
3,0,0,0
178739000
3,2,6,1184
0
3,2,7,930
0
3,2,8,819
0
3,2,9,2717
0
3,2,4,239
0
3,2,5,4
0
3,0,0,0
180684000
3,2,6,1184
0
3,2,7,930
0
3,2,8,819
0
3,2,9,2716
0
3,2,4,239
0
3,2,5,4
0
3,0,0,0
179317000
3,2,6,1184
0
3,2,7,930
0
3,2,8,819
0
3,2,9,2718
0
3,2,4,239
0
3,2,5,4
0
3,0,0,0
179587000
3,2,6,1184
0
3,2,7,930
0
3,2,8,819
0
3,2,9,2717
0
3,2,4,239
0
3,2,5,4
0
3,0,0,0
179564000
3,2,6,1184
0
3,2,7,930
0
3,2,8,818
0
3,2,9,2718
0
3,2,4,239
0
3,2,5,4
0
3,0,0,0
179696000
3,2,6,1184
0
3,2,7,930
0
3,2,8,818
0
3,2,9,2718
0
3,2,4,239
0
3,2,5,4
0
3,0,0,0
179276000
3,2,6,1184
0
3,2,7,930
0
3,2,8,819
0
3,2,9,2718
0
3,2,4,239
0
3,2,5,4
0
3,0,0,0
179604000
3,2,6,1184
0
3,2,7,930
0
3,2,8,819
0
3,2,9,2719
0
3,2,4,239
0
3,2,5,4
0
3,0,0,0
179551000
3,2,6,1184
0
3,2,7,930
0
3,2,8,819
0
3,2,9,2719
0
3,2,4,239
0
3,2,5,4
0
3,0,0,0
179730000
3,2,6,1184
0
3,2,7,930
0
3,2,8,819
0
3,2,9,2717
0
3,2,4,239
0
3,2,5,4
0
3,0,0,0
179492000
3,2,6,1184
0
3,2,7,930
0
3,2,8,819
0
3,2,9,2718
0
3,2,4,239
0
3,2,5,4
0
3,0,0,0
179673000
3,2,6,1158
0
3,2,7,911
0
3,2,8,803
0
3,2,9,2650
0
3,2,4,239
0
3,2,5,4
0
3,0,0,0
179458000
3,2,6,1032
0
3,2,7,814
0
3,2,8,725
0
3,2,9,2377
0
3,2,4,239
0
3,2,5,4
0
3,0,0,0
179229000
3,2,6,918
0
3,2,7,728
0
3,2,8,648
0
3,2,9,2130
0
3,2,4,239
0
3,2,5,4
0
3,0,0,0
179122000
3,2,6,908
0
3,2,7,720
0
3,2,8,641
0
3,2,9,2113
0
3,2,4,239
0
3,2,5,4
0
3,0,0,0
179718000
3,2,6,937
0
3,2,7,741
0
3,2,8,658
0
3,2,9,2174
0
3,2,4,239
0
3,2,5,4
0
3,0,0,0
179597000
3,2,6,975
0
3,2,7,770
0
3,2,8,682
0
3,2,9,2257
0
3,2,4,239
0
3,2,5,4
0
3,0,0,0
179624000
3,2,6,984
0
3,2,7,777
0
3,2,8,687
0
3,2,9,2275
0
3,2,4,239
0
3,2,5,4
0
3,0,0,0
179212000
3,2,6,978
0
3,2,7,772
0
3,2,8,683
0
3,2,9,2263
0
3,2,4,239
0
3,2,5,4
0
3,0,0,0
179393000
3,2,6,962
0
3,2,7,761
0
3,2,8,673
0
3,2,9,2229
0
3,2,4,239
0
3,2,5,4
0
3,0,0,0
179861000
3,2,6,953
0
3,2,7,754
0
3,2,8,668
0
3,2,9,2210
0
3,2,4,239
0
3,2,5,4
0
3,0,0,0
179329000
3,2,6,948
0
3,2,7,750
0
3,2,8,665
0
3,2,9,2200
0
3,2,4,239
0
3,2,5,4
0
3,0,0,0
180640000
3,2,6,948
0
3,2,7,751
0
3,2,8,665
0
3,2,9,2199
0
3,2,4,239
0
3,2,5,4
0
3,0,0,0
114960000
1,1,158,1
0
1,0,0,0
64464000
3,2,6,949
0
3,2,7,750
0
3,2,8,665
0
3,2,9,2201
0
3,2,4,239
0
3,2,5,4
0
3,0,0,0
57496000
1,1,158,0
0
1,0,0,0
121104000
3,2,6,947
0
3,2,7,749
0
3,2,8,664
0
3,2,9,2196
0
3,2,4,239
0
3,2,5,4
0
3,0,0,0
179722000
3,2,6,946
0
3,2,7,748
0
3,2,8,663
0
3,2,9,2192
0
3,2,4,239
0
3,2,5,4
0
3,0,0,0
179336000
3,2,6,941
0
3,2,7,744
0
3,2,8,661
0
3,2,9,2183
0
3,2,4,239
0
3,2,5,4
0
3,0,0,0
179724000
3,2,6,927
0
3,2,7,734
0
3,2,8,652
0
3,2,9,2153
0
3,2,4,239
0
3,2,5,4
0
3,0,0,0
179372000
3,2,6,873
0
3,2,7,695
0
3,2,8,619
0
3,2,9,2031
0
3,2,4,239
0
3,2,5,4
0
3,0,0,0
180024000
3,2,6,919
0
3,2,7,732
0
3,2,8,655
0
3,2,9,2140
0
3,2,4,239
0
3,2,5,4
0
3,0,0,0
179563000
3,2,6,1035
0
3,2,7,820
0
3,2,8,731
0
3,2,9,2393
0
3,2,4,239
0
3,2,5,4
0
3,0,0,0
179444000
3,2,6,1117
0
3,2,7,882
0
3,2,8,782
0
3,2,9,2562
0
3,2,4,239
0
3,2,5,4
0
3,0,0,0
179769000
3,2,6,1144
0
3,2,7,903
0
3,2,8,797
0
3,2,9,2619
0
3,2,4,239
0
3,2,5,4
0
3,0,0,0
